results/res_prop_muc/res_Cimatti_mathsat_cores/QF_LRA/tgc_io-nosafe-1.smt.smt2.res
unsat
( c14
  c236
  c25
  c3
  c44
  c61
  c71
  c85 )
